
===== New CPLEX run =====
Instance: /home/yorig/tuner/mpils-tests/instances/miplib/easy/lotsize.mps
Config: /scratch/yorig/mpils-results-grid-seconds-5-watchdog/easy/24proc/seed-5/4_lotsize_seed-5_20260504_011421/iterated_local_search/run_2_worker_8/ils_config_11282455206074109410.prm
========================

Selected objective sense:  MINIMIZE
Selected objective  name:  R1921
Selected RHS        name:  B
Selected bound      name:  BOUND
Wall watchdog: enabled factor=1 grace=1 limit=6 seconds
Version identifier: 22.1.2.0 | 2024-11-26 | 0edbb82fd
CPXPARAM_Threads                                 8
CPXPARAM_Parallel                                1
CPXPARAM_MIP_Cuts_Cliques                        3
CPXPARAM_MIP_Cuts_Covers                         -1
CPXPARAM_MIP_Cuts_FlowCovers                     -1
CPXPARAM_MIP_Cuts_Implied                        1
CPXPARAM_MIP_Cuts_GUBCovers                      2
CPXPARAM_MIP_Limits_GomoryCand                   50
CPXPARAM_MIP_Cuts_PathCut                        1
CPXPARAM_MIP_Cuts_MIRCut                         -1
CPXPARAM_MIP_Cuts_Disjunctive                    3
CPXPARAM_Emphasis_MIP                            2
CPXPARAM_TimeLimit                               5
CPXPARAM_MIP_Limits_CutsFactor                   8
Tried aggregator 1 time.
MIP Presolve eliminated 595 rows and 0 columns.
MIP Presolve added 1190 rows and 0 columns.
MIP Presolve modified 10 coefficients.
Reduced MIP has 2515 rows, 2985 columns, and 7755 nonzeros.
Reduced MIP has 1195 binaries, 0 generals, 0 SOSs, and 0 indicators.
Presolve time = 0.00 sec. (4.53 ticks)
Probing fixed 0 vars, tightened 5487 bounds.
Probing time = 0.01 sec. (18.38 ticks)
Tried aggregator 2 times.
Detecting symmetries...
MIP Presolve modified 1206 coefficients.
Aggregator did 10 substitutions.
Reduced MIP has 2505 rows, 2975 columns, and 7735 nonzeros.
Reduced MIP has 1195 binaries, 0 generals, 0 SOSs, and 0 indicators.
Presolve time = 0.00 sec. (6.66 ticks)
Probing fixed 0 vars, tightened 2401 bounds.
Probing time = 0.00 sec. (6.41 ticks)
Clique table members: 190.
MIP emphasis: optimality.
MIP search method: dynamic search.
Parallel mode: deterministic, using up to 8 threads.
Root relaxation solution time = 0.01 sec. (9.71 ticks)

        Nodes                                         Cuts/
   Node  Left     Objective  IInf  Best Integer    Best Bound    ItCnt     Gap

      0     0   348385.3466   472                 348385.3466      882         
*     0+    0                       1.01740e+07   348385.3466            96.58%
*     0+    0                      7973370.0000   348385.3466            95.63%
      0     0   442741.5537   608  7973370.0000     Cuts: 416     1317   94.45%
*     0+    0                      1940615.0000   442741.5537            77.19%
      0     0   500673.0646   559  1940615.0000     Cuts: 259     1794   74.20%
      0     0   562979.2195   573  1940615.0000     Cuts: 224     2209   70.99%
      0     0   601373.0965   602  1940615.0000     Cuts: 183     2491   69.01%

GUB cover cuts applied:  0
Clique cuts applied:  5
Implied bound cuts applied:  17
Flow path cuts applied:  79
Multi commodity flow cuts applied:  292
Gomory fractional cuts applied:  73
Disjunctive cuts applied:  185
Cone linearizations applied:  0

Root node processing (before b&c):
  Real time             =    5.01 sec. (7895.74 ticks)
Parallel b&c, 8 threads:
  Real time             =    0.00 sec. (0.00 ticks)
  Sync time (average)   =    0.00 sec.
  Wait time (average)   =    0.00 sec.
                          ------------
Total (root+branch&cut) =    5.01 sec. (7895.74 ticks)
Gap: 69.01%
Upper bound: 1.94062e+06
Lower bound: 601373
Termination status: Normal
End of CPLEX run. Time: 5.01317 seconds

===== New CPLEX run =====
Instance: /home/yorig/tuner/mpils-tests/instances/miplib/easy/lotsize.mps
Config: /scratch/yorig/mpils-results-grid-seconds-5-watchdog/easy/24proc/seed-5/4_lotsize_seed-5_20260504_011421/iterated_local_search/run_2_worker_8/ils_config_7358549388381462477.prm
========================

Selected objective sense:  MINIMIZE
Selected objective  name:  R1921
Selected RHS        name:  B
Selected bound      name:  BOUND
Wall watchdog: enabled factor=1 grace=1 limit=6 seconds
Version identifier: 22.1.2.0 | 2024-11-26 | 0edbb82fd
CPXPARAM_Threads                                 8
CPXPARAM_Parallel                                1
CPXPARAM_MIP_Cuts_Cliques                        3
CPXPARAM_MIP_Cuts_Covers                         -1
CPXPARAM_MIP_Cuts_FlowCovers                     2
CPXPARAM_MIP_Cuts_Implied                        1
CPXPARAM_MIP_Cuts_GUBCovers                      2
CPXPARAM_MIP_Limits_GomoryCand                   50
CPXPARAM_MIP_Cuts_PathCut                        1
CPXPARAM_MIP_Cuts_MIRCut                         -1
CPXPARAM_MIP_Cuts_Disjunctive                    3
CPXPARAM_Emphasis_MIP                            2
CPXPARAM_TimeLimit                               5
CPXPARAM_MIP_Limits_CutsFactor                   8
Tried aggregator 1 time.
MIP Presolve eliminated 595 rows and 0 columns.
MIP Presolve added 1190 rows and 0 columns.
MIP Presolve modified 10 coefficients.
Reduced MIP has 2515 rows, 2985 columns, and 7755 nonzeros.
Reduced MIP has 1195 binaries, 0 generals, 0 SOSs, and 0 indicators.
Presolve time = 0.00 sec. (4.53 ticks)
Probing fixed 0 vars, tightened 5487 bounds.
Probing time = 0.01 sec. (18.38 ticks)
Tried aggregator 2 times.
Detecting symmetries...
MIP Presolve modified 1206 coefficients.
Aggregator did 10 substitutions.
Reduced MIP has 2505 rows, 2975 columns, and 7735 nonzeros.
Reduced MIP has 1195 binaries, 0 generals, 0 SOSs, and 0 indicators.
Presolve time = 0.00 sec. (6.66 ticks)
Probing fixed 0 vars, tightened 2401 bounds.
Probing time = 0.00 sec. (6.41 ticks)
Clique table members: 190.
MIP emphasis: optimality.
MIP search method: dynamic search.
Parallel mode: deterministic, using up to 8 threads.
Root relaxation solution time = 0.01 sec. (9.71 ticks)

        Nodes                                         Cuts/
   Node  Left     Objective  IInf  Best Integer    Best Bound    ItCnt     Gap

      0     0   348385.3466   472                 348385.3466      882         
*     0+    0                       1.01740e+07   348385.3466            96.58%
*     0+    0                      7973370.0000   348385.3466            95.63%
      0     0   528701.8402   501  7973370.0000     Cuts: 726     1895   93.37%
*     0+    0                      1940615.0000   528701.8402            72.76%
      0     0   771465.6732   634  1940615.0000     Cuts: 726     2781   60.25%
*     0+    0                      1925038.0000   771465.6732            59.92%
      0     0   915358.9760   720  1925038.0000     Cuts: 726     3619   52.45%

GUB cover cuts applied:  0
Clique cuts applied:  5
Implied bound cuts applied:  18
Flow cuts applied:  523
Mixed integer rounding cuts applied:  321
Flow path cuts applied:  129
Multi commodity flow cuts applied:  15
Gomory fractional cuts applied:  23
Disjunctive cuts applied:  41
Cone linearizations applied:  0

Root node processing (before b&c):
  Real time             =    5.01 sec. (7898.69 ticks)
Parallel b&c, 8 threads:
  Real time             =    0.00 sec. (0.00 ticks)
  Sync time (average)   =    0.00 sec.
  Wait time (average)   =    0.00 sec.
                          ------------
Total (root+branch&cut) =    5.01 sec. (7898.69 ticks)
Gap: 52.45%
Upper bound: 1.92504e+06
Lower bound: 915359
Termination status: Normal
End of CPLEX run. Time: 5.01371 seconds

===== New CPLEX run =====
Instance: /home/yorig/tuner/mpils-tests/instances/miplib/easy/lotsize.mps
Config: /scratch/yorig/mpils-results-grid-seconds-5-watchdog/easy/24proc/seed-5/4_lotsize_seed-5_20260504_011421/iterated_local_search/run_2_worker_8/ils_config_12317827498303520941.prm
========================

Selected objective sense:  MINIMIZE
Selected objective  name:  R1921
Selected RHS        name:  B
Selected bound      name:  BOUND
Wall watchdog: enabled factor=1 grace=1 limit=6 seconds
Version identifier: 22.1.2.0 | 2024-11-26 | 0edbb82fd
CPXPARAM_Threads                                 8
CPXPARAM_Parallel                                1
CPXPARAM_MIP_Cuts_Cliques                        3
CPXPARAM_MIP_Cuts_Covers                         -1
CPXPARAM_MIP_Cuts_FlowCovers                     2
CPXPARAM_MIP_Cuts_Implied                        1
CPXPARAM_MIP_Cuts_GUBCovers                      2
CPXPARAM_MIP_Limits_GomoryCand                   50
CPXPARAM_MIP_Cuts_PathCut                        2
CPXPARAM_MIP_Cuts_MIRCut                         -1
CPXPARAM_MIP_Cuts_Disjunctive                    3
CPXPARAM_Emphasis_MIP                            2
CPXPARAM_TimeLimit                               5
CPXPARAM_MIP_Limits_CutsFactor                   8
Tried aggregator 1 time.
MIP Presolve eliminated 595 rows and 0 columns.
MIP Presolve added 1190 rows and 0 columns.
MIP Presolve modified 10 coefficients.
Reduced MIP has 2515 rows, 2985 columns, and 7755 nonzeros.
Reduced MIP has 1195 binaries, 0 generals, 0 SOSs, and 0 indicators.
Presolve time = 0.00 sec. (4.53 ticks)
Probing fixed 0 vars, tightened 5487 bounds.
Probing time = 0.01 sec. (18.38 ticks)
Tried aggregator 2 times.
Detecting symmetries...
MIP Presolve modified 1206 coefficients.
Aggregator did 10 substitutions.
Reduced MIP has 2505 rows, 2975 columns, and 7735 nonzeros.
Reduced MIP has 1195 binaries, 0 generals, 0 SOSs, and 0 indicators.
Presolve time = 0.01 sec. (6.66 ticks)
Probing fixed 0 vars, tightened 2401 bounds.
Probing time = 0.00 sec. (6.41 ticks)
Clique table members: 190.
MIP emphasis: optimality.
MIP search method: dynamic search.
Parallel mode: deterministic, using up to 8 threads.
Root relaxation solution time = 0.01 sec. (9.71 ticks)

        Nodes                                         Cuts/
   Node  Left     Objective  IInf  Best Integer    Best Bound    ItCnt     Gap

      0     0   348385.3466   472                 348385.3466      882         
*     0+    0                       1.01740e+07   348385.3466            96.58%
*     0+    0                      7973370.0000   348385.3466            95.63%
      0     0   528701.8402   501  7973370.0000     Cuts: 726     1895   93.37%
*     0+    0                      1940615.0000   528701.8402            72.76%
      0     0   771465.6732   634  1940615.0000     Cuts: 726     2781   60.25%
*     0+    0                      1925038.0000   771465.6732            59.92%
      0     0   915358.9760   720  1925038.0000     Cuts: 726     3619   52.45%

GUB cover cuts applied:  0
Clique cuts applied:  5
Implied bound cuts applied:  18
Flow cuts applied:  523
Mixed integer rounding cuts applied:  321
Flow path cuts applied:  129
Multi commodity flow cuts applied:  15
Gomory fractional cuts applied:  23
Disjunctive cuts applied:  41
Cone linearizations applied:  0

Root node processing (before b&c):
  Real time             =    5.01 sec. (7869.92 ticks)
Parallel b&c, 8 threads:
  Real time             =    0.00 sec. (0.00 ticks)
  Sync time (average)   =    0.00 sec.
  Wait time (average)   =    0.00 sec.
                          ------------
Total (root+branch&cut) =    5.01 sec. (7869.92 ticks)
Gap: 52.45%
Upper bound: 1.92504e+06
Lower bound: 915359
Termination status: Normal
End of CPLEX run. Time: 5.016 seconds

===== New CPLEX run =====
Instance: /home/yorig/tuner/mpils-tests/instances/miplib/easy/lotsize.mps
Config: /scratch/yorig/mpils-results-grid-seconds-5-watchdog/easy/24proc/seed-5/4_lotsize_seed-5_20260504_011421/iterated_local_search/run_2_worker_8/ils_config_1726133277536112789.prm
========================

Selected objective sense:  MINIMIZE
Selected objective  name:  R1921
Selected RHS        name:  B
Selected bound      name:  BOUND
Wall watchdog: enabled factor=1 grace=1 limit=6 seconds
Version identifier: 22.1.2.0 | 2024-11-26 | 0edbb82fd
CPXPARAM_Threads                                 8
CPXPARAM_Parallel                                1
CPXPARAM_MIP_Cuts_Cliques                        3
CPXPARAM_MIP_Cuts_Covers                         -1
CPXPARAM_MIP_Cuts_FlowCovers                     2
CPXPARAM_MIP_Cuts_Implied                        1
CPXPARAM_MIP_Cuts_GUBCovers                      2
CPXPARAM_MIP_Limits_GomoryCand                   50
CPXPARAM_MIP_Cuts_PathCut                        1
CPXPARAM_MIP_Cuts_MIRCut                         -1
CPXPARAM_MIP_Cuts_Disjunctive                    3
CPXPARAM_Emphasis_MIP                            2
CPXPARAM_TimeLimit                               5
Tried aggregator 1 time.
MIP Presolve eliminated 595 rows and 0 columns.
MIP Presolve added 1190 rows and 0 columns.
MIP Presolve modified 10 coefficients.
Reduced MIP has 2515 rows, 2985 columns, and 7755 nonzeros.
Reduced MIP has 1195 binaries, 0 generals, 0 SOSs, and 0 indicators.
Presolve time = 0.00 sec. (4.53 ticks)
Probing fixed 0 vars, tightened 5487 bounds.
Probing time = 0.01 sec. (18.38 ticks)
Tried aggregator 2 times.
Detecting symmetries...
MIP Presolve modified 1206 coefficients.
Aggregator did 10 substitutions.
Reduced MIP has 2505 rows, 2975 columns, and 7735 nonzeros.
Reduced MIP has 1195 binaries, 0 generals, 0 SOSs, and 0 indicators.
Presolve time = 0.00 sec. (6.66 ticks)
Probing fixed 0 vars, tightened 2401 bounds.
Probing time = 0.00 sec. (6.41 ticks)
Clique table members: 190.
MIP emphasis: optimality.
MIP search method: dynamic search.
Parallel mode: deterministic, using up to 8 threads.
Root relaxation solution time = 0.01 sec. (9.71 ticks)

        Nodes                                         Cuts/
   Node  Left     Objective  IInf  Best Integer    Best Bound    ItCnt     Gap

      0     0   348385.3466   472                 348385.3466      882         
*     0+    0                       1.01740e+07   348385.3466            96.58%
*     0+    0                      7973370.0000   348385.3466            95.63%
      0     0   528701.8402   501  7973370.0000     Cuts: 726     1895   93.37%
*     0+    0                      1940615.0000   528701.8402            72.76%
      0     0   771465.6732   634  1940615.0000     Cuts: 726     2781   60.25%
*     0+    0                      1925038.0000   771465.6732            59.92%
      0     0   915358.9760   720  1925038.0000     Cuts: 726     3619   52.45%

GUB cover cuts applied:  0
Clique cuts applied:  5
Implied bound cuts applied:  18
Flow cuts applied:  523
Mixed integer rounding cuts applied:  321
Flow path cuts applied:  129
Multi commodity flow cuts applied:  15
Gomory fractional cuts applied:  23
Disjunctive cuts applied:  41
Cone linearizations applied:  0

Root node processing (before b&c):
  Real time             =    5.01 sec. (7845.28 ticks)
Parallel b&c, 8 threads:
  Real time             =    0.00 sec. (0.00 ticks)
  Sync time (average)   =    0.00 sec.
  Wait time (average)   =    0.00 sec.
                          ------------
Total (root+branch&cut) =    5.01 sec. (7845.28 ticks)
Gap: 52.45%
Upper bound: 1.92504e+06
Lower bound: 915359
Termination status: Normal
End of CPLEX run. Time: 5.01613 seconds

===== New CPLEX run =====
Instance: /home/yorig/tuner/mpils-tests/instances/miplib/easy/lotsize.mps
Config: /scratch/yorig/mpils-results-grid-seconds-5-watchdog/easy/24proc/seed-5/4_lotsize_seed-5_20260504_011421/iterated_local_search/run_2_worker_8/ils_config_6769574933605742655.prm
========================

Selected objective sense:  MINIMIZE
Selected objective  name:  R1921
Selected RHS        name:  B
Selected bound      name:  BOUND
Wall watchdog: enabled factor=1 grace=1 limit=6 seconds
Version identifier: 22.1.2.0 | 2024-11-26 | 0edbb82fd
CPXPARAM_Threads                                 8
CPXPARAM_Parallel                                1
CPXPARAM_MIP_Cuts_Cliques                        3
CPXPARAM_MIP_Cuts_Covers                         -1
CPXPARAM_MIP_Cuts_FlowCovers                     2
CPXPARAM_MIP_Cuts_Implied                        1
CPXPARAM_MIP_Cuts_GUBCovers                      2
CPXPARAM_MIP_Limits_GomoryCand                   50
CPXPARAM_MIP_Cuts_Gomory                         1
CPXPARAM_MIP_Cuts_PathCut                        1
CPXPARAM_MIP_Cuts_MIRCut                         -1
CPXPARAM_MIP_Cuts_Disjunctive                    3
CPXPARAM_Emphasis_MIP                            2
CPXPARAM_TimeLimit                               5
CPXPARAM_MIP_Limits_CutsFactor                   8
Tried aggregator 1 time.
MIP Presolve eliminated 595 rows and 0 columns.
MIP Presolve added 1190 rows and 0 columns.
MIP Presolve modified 10 coefficients.
Reduced MIP has 2515 rows, 2985 columns, and 7755 nonzeros.
Reduced MIP has 1195 binaries, 0 generals, 0 SOSs, and 0 indicators.
Presolve time = 0.00 sec. (4.53 ticks)
Probing fixed 0 vars, tightened 5487 bounds.
Probing time = 0.01 sec. (18.38 ticks)
Tried aggregator 2 times.
Detecting symmetries...
MIP Presolve modified 1206 coefficients.
Aggregator did 10 substitutions.
Reduced MIP has 2505 rows, 2975 columns, and 7735 nonzeros.
Reduced MIP has 1195 binaries, 0 generals, 0 SOSs, and 0 indicators.
Presolve time = 0.00 sec. (6.66 ticks)
Probing fixed 0 vars, tightened 2401 bounds.
Probing time = 0.00 sec. (6.41 ticks)
Clique table members: 190.
MIP emphasis: optimality.
MIP search method: dynamic search.
Parallel mode: deterministic, using up to 8 threads.
Root relaxation solution time = 0.01 sec. (9.71 ticks)

        Nodes                                         Cuts/
   Node  Left     Objective  IInf  Best Integer    Best Bound    ItCnt     Gap

      0     0   348385.3466   472                 348385.3466      882         
*     0+    0                       1.01740e+07   348385.3466            96.58%
*     0+    0                      7973370.0000   348385.3466            95.63%
      0     0   528701.8402   501  7973370.0000     Cuts: 726     1895   93.37%
*     0+    0                      1940615.0000   528701.8402            72.76%
      0     0   771465.6732   634  1940615.0000     Cuts: 726     2781   60.25%
*     0+    0                      1925038.0000   771465.6732            59.92%
      0     0   915358.9760   720  1925038.0000     Cuts: 726     3619   52.45%

GUB cover cuts applied:  0
Clique cuts applied:  5
Implied bound cuts applied:  18
Flow cuts applied:  523
Mixed integer rounding cuts applied:  321
Flow path cuts applied:  129
Multi commodity flow cuts applied:  15
Gomory fractional cuts applied:  23
Disjunctive cuts applied:  41
Cone linearizations applied:  0

Root node processing (before b&c):
  Real time             =    5.01 sec. (7914.26 ticks)
Parallel b&c, 8 threads:
  Real time             =    0.00 sec. (0.00 ticks)
  Sync time (average)   =    0.00 sec.
  Wait time (average)   =    0.00 sec.
                          ------------
Total (root+branch&cut) =    5.01 sec. (7914.26 ticks)
Gap: 52.45%
Upper bound: 1.92504e+06
Lower bound: 915359
Termination status: Normal
End of CPLEX run. Time: 5.01512 seconds

===== New CPLEX run =====
Instance: /home/yorig/tuner/mpils-tests/instances/miplib/easy/lotsize.mps
Config: /scratch/yorig/mpils-results-grid-seconds-5-watchdog/easy/24proc/seed-5/4_lotsize_seed-5_20260504_011421/iterated_local_search/run_2_worker_8/ils_config_573253179566435303.prm
========================

Selected objective sense:  MINIMIZE
Selected objective  name:  R1921
Selected RHS        name:  B
Selected bound      name:  BOUND
Wall watchdog: enabled factor=1 grace=1 limit=6 seconds
Version identifier: 22.1.2.0 | 2024-11-26 | 0edbb82fd
CPXPARAM_Threads                                 8
CPXPARAM_Parallel                                1
CPXPARAM_MIP_Cuts_Cliques                        3
CPXPARAM_MIP_Cuts_Covers                         3
CPXPARAM_MIP_Cuts_FlowCovers                     2
CPXPARAM_MIP_Cuts_Implied                        1
CPXPARAM_MIP_Cuts_GUBCovers                      2
CPXPARAM_MIP_Limits_GomoryCand                   50
CPXPARAM_MIP_Cuts_PathCut                        1
CPXPARAM_MIP_Cuts_MIRCut                         -1
CPXPARAM_MIP_Cuts_Disjunctive                    3
CPXPARAM_Emphasis_MIP                            2
CPXPARAM_TimeLimit                               5
CPXPARAM_MIP_Limits_CutsFactor                   8
Tried aggregator 1 time.
MIP Presolve eliminated 595 rows and 0 columns.
MIP Presolve added 1190 rows and 0 columns.
MIP Presolve modified 10 coefficients.
Reduced MIP has 2515 rows, 2985 columns, and 7755 nonzeros.
Reduced MIP has 1195 binaries, 0 generals, 0 SOSs, and 0 indicators.
Presolve time = 0.00 sec. (4.53 ticks)
Probing fixed 0 vars, tightened 5487 bounds.
Probing time = 0.01 sec. (18.38 ticks)
Tried aggregator 2 times.
Detecting symmetries...
MIP Presolve modified 1206 coefficients.
Aggregator did 10 substitutions.
Reduced MIP has 2505 rows, 2975 columns, and 7735 nonzeros.
Reduced MIP has 1195 binaries, 0 generals, 0 SOSs, and 0 indicators.
Presolve time = 0.00 sec. (6.66 ticks)
Probing fixed 0 vars, tightened 2401 bounds.
Probing time = 0.00 sec. (6.41 ticks)
Clique table members: 190.
MIP emphasis: optimality.
MIP search method: dynamic search.
Parallel mode: deterministic, using up to 8 threads.
Root relaxation solution time = 0.01 sec. (9.71 ticks)

        Nodes                                         Cuts/
   Node  Left     Objective  IInf  Best Integer    Best Bound    ItCnt     Gap

      0     0   348385.3466   472                 348385.3466      882         
*     0+    0                       1.01740e+07   348385.3466            96.58%
*     0+    0                      7973370.0000   348385.3466            95.63%
      0     0   528701.8402   501  7973370.0000     Cuts: 726     1895   93.37%
*     0+    0                      1940615.0000   528701.8402            72.76%
      0     0   774207.8030   632  1940615.0000     Cuts: 726     2783   60.11%
*     0+    0                      1937822.0000   774207.8030            60.05%
      0     0   914243.7334   722  1937822.0000     Cuts: 726     3614   52.82%

GUB cover cuts applied:  0
Clique cuts applied:  0
Cover cuts applied:  10
Implied bound cuts applied:  16
Flow cuts applied:  525
Mixed integer rounding cuts applied:  323
Flow path cuts applied:  125
Multi commodity flow cuts applied:  16
Gomory fractional cuts applied:  24
Disjunctive cuts applied:  41
Cone linearizations applied:  0

Root node processing (before b&c):
  Real time             =    5.01 sec. (7599.54 ticks)
Parallel b&c, 8 threads:
  Real time             =    0.00 sec. (0.00 ticks)
  Sync time (average)   =    0.00 sec.
  Wait time (average)   =    0.00 sec.
                          ------------
Total (root+branch&cut) =    5.01 sec. (7599.54 ticks)
Gap: 52.82%
Upper bound: 1.93782e+06
Lower bound: 914244
Termination status: Normal
End of CPLEX run. Time: 5.01454 seconds
